p edge 24 92
v 1 676
v 2 756
v 3 985
v 4 521
v 5 50
v 6 985
v 7 546
v 8 75
v 9 129
v 10 129
v 11 740
v 12 246
v 13 800
v 14 785
v 15 760
v 16 157
v 17 800
v 18 954
v 19 954
v 20 550
v 21 55
v 22 237
v 23 425
v 24 237
e 1 2
e 1 3
e 1 4
e 1 5
e 1 6
e 1 11
e 1 15
e 1 20
e 2 3
e 2 4
e 2 5
e 2 7
e 2 12
e 2 16
e 2 21
e 3 4
e 3 5
e 3 8
e 3 13
e 3 17
e 3 22
e 4 5
e 4 9
e 4 14
e 4 18
e 4 23
e 5 10
e 5 19
e 5 24
e 6 7
e 6 8
e 6 9
e 6 10
e 6 11
e 6 15
e 6 20
e 7 8
e 7 9
e 7 10
e 7 12
e 7 16
e 7 21
e 8 9
e 8 10
e 8 13
e 8 17
e 8 22
e 9 10
e 9 14
e 9 18
e 9 23
e 10 19
e 10 24
e 11 12
e 11 13
e 11 14
e 11 15
e 11 20
e 12 13
e 12 14
e 12 16
e 12 21
e 13 14
e 13 17
e 13 22
e 14 18
e 14 23
e 15 16
e 15 17
e 15 18
e 15 19
e 15 20
e 16 17
e 16 18
e 16 19
e 16 21
e 17 18
e 17 19
e 17 22
e 18 19
e 18 23
e 19 24
e 20 21
e 20 22
e 20 23
e 20 24
e 21 22
e 21 23
e 21 24
e 22 23
e 22 24
e 23 24
